p wcnf 143 286 287 
1 131 76 0 
1 43 32 0 
1 114 -106 0 
1 -88 18 0 
1 -71 130 0 
1 16 36 0 
1 53 -45 0 
1 -43 13 0 
1 31 -30 0 
1 -126 -97 0 
1 -118 -22 0 
1 -26 -83 0 
1 -29 123 0 
1 -30 -91 0 
1 132 98 0 
1 101 19 0 
1 -141 -116 0 
1 -60 48 0 
1 116 -14 0 
1 -103 -33 0 
1 -98 -71 0 
1 132 108 0 
1 126 66 0 
1 14 56 0 
1 135 -126 0 
1 94 -142 0 
1 95 131 0 
1 43 -36 0 
1 71 61 0 
1 -74 -107 0 
1 67 87 0 
1 -101 -46 0 
1 93 50 0 
1 57 -41 0 
1 43 96 0 
1 -52 -4 0 
1 -106 55 0 
1 -121 19 0 
1 61 -4 0 
1 3 -45 0 
1 26 118 0 
1 129 130 0 
1 17 120 0 
1 -33 24 0 
1 -136 -80 0 
1 -80 -58 0 
1 42 -131 0 
1 -104 142 0 
1 17 65 0 
1 13 -43 0 
1 101 105 0 
1 111 103 0 
1 125 41 0 
1 -65 75 0 
1 7 58 0 
1 -103 3 0 
1 107 -115 0 
1 134 -84 0 
1 -24 -109 0 
1 -118 -49 0 
1 -93 -137 0 
1 122 131 0 
1 4 -75 0 
1 81 -32 0 
1 -26 80 0 
1 -70 -108 0 
1 25 -76 0 
1 115 -80 0 
1 -18 131 0 
1 121 118 0 
1 42 -40 0 
1 -68 19 0 
1 12 -129 0 
1 45 -82 0 
1 -56 64 0 
1 27 14 0 
1 139 34 0 
1 142 2 0 
1 -21 114 0 
1 -128 -129 0 
1 -60 10 0 
1 -16 -14 0 
1 103 12 0 
1 -128 -29 0 
1 -137 -5 0 
1 -94 -63 0 
1 -110 -19 0 
1 -138 45 0 
1 -40 -111 0 
1 -10 58 0 
1 -99 -102 0 
1 72 122 0 
1 -17 113 0 
1 -143 -38 0 
1 -95 -100 0 
1 17 -66 0 
1 139 -109 0 
1 -108 136 0 
1 -3 2 0 
1 45 -136 0 
1 121 35 0 
1 -70 -35 0 
1 -52 -79 0 
1 6 36 0 
1 123 -29 0 
1 -56 -63 0 
1 91 19 0 
1 -66 -84 0 
1 -130 98 0 
1 -33 127 0 
1 134 -72 0 
1 -127 -32 0 
1 18 -71 0 
1 30 -53 0 
1 -27 121 0 
1 48 -94 0 
1 128 -16 0 
1 -47 -77 0 
1 -20 42 0 
1 -113 128 0 
1 115 -93 0 
1 -9 118 0 
1 115 -38 0 
1 -65 -12 0 
1 110 80 0 
1 60 -85 0 
1 23 -51 0 
1 -121 -42 0 
1 -9 60 0 
1 115 -49 0 
1 -86 -36 0 
1 -143 81 0 
1 -127 -23 0 
1 136 -4 0 
1 143 -52 0 
1 130 -97 0 
1 -90 -136 0 
1 21 -133 0 
1 -13 -94 0 
1 -140 -64 0 
1 -141 -120 0 
1 -4 -135 0 
1 128 69 0 
1 -83 74 0 
1 79 -60 0 
1 -23 -8 0 
1 -65 -99 0 
1 50 -98 0 
1 114 -48 0 
1 78 44 0 
1 -14 60 0 
1 -87 -16 0 
1 -102 -1 0 
1 135 119 0 
1 39 44 0 
1 -41 37 0 
1 72 30 0 
1 -38 21 0 
1 110 -37 0 
1 -120 102 0 
1 49 -136 0 
1 8 -21 0 
1 18 23 0 
1 122 7 0 
1 78 77 0 
1 -60 5 0 
1 -135 -142 0 
1 100 -99 0 
1 117 51 0 
1 2 -44 0 
1 36 71 0 
1 38 20 0 
1 142 82 0 
1 -108 19 0 
1 131 -122 0 
1 130 2 0 
1 -66 25 0 
1 -94 33 0 
1 -29 -125 0 
1 -118 93 0 
1 -94 -49 0 
1 -53 -62 0 
1 114 71 0 
1 -24 32 0 
1 -94 129 0 
1 -36 -96 0 
1 -130 -30 0 
1 -72 -8 0 
1 141 -34 0 
1 123 -42 0 
1 64 -39 0 
1 -34 27 0 
1 -136 -61 0 
1 -24 45 0 
1 90 60 0 
1 20 -108 0 
1 -7 -113 0 
1 -107 -86 0 
1 -129 23 0 
1 123 55 0 
1 -93 -43 0 
1 57 -73 0 
1 -96 103 0 
1 -116 -68 0 
1 117 36 0 
1 56 -97 0 
1 109 -138 0 
1 -128 -131 0 
1 4 -123 0 
1 -23 -56 0 
1 -46 -7 0 
1 97 123 0 
1 -69 85 0 
1 -79 70 0 
1 125 -31 0 
1 -40 86 0 
1 89 92 0 
1 -3 -112 0 
1 124 52 0 
1 135 110 0 
1 -37 64 0 
1 43 -13 0 
1 -133 -105 0 
1 -79 50 0 
1 47 50 0 
1 125 5 0 
1 -62 122 0 
1 -126 -46 0 
1 4 -42 0 
1 115 -12 0 
1 88 -12 0 
1 135 -141 0 
1 114 -47 0 
1 -7 -118 0 
1 20 19 0 
1 -94 39 0 
1 -42 38 0 
1 13 20 0 
1 -55 -26 0 
1 -104 51 0 
1 -55 -21 0 
1 -77 29 0 
1 -14 10 0 
1 114 1 0 
1 -6 -79 0 
1 36 22 0 
1 -137 -78 0 
1 103 -82 0 
1 -8 -128 0 
1 -82 116 0 
1 60 -51 0 
1 -77 136 0 
1 106 12 0 
1 13 -17 0 
1 -83 -124 0 
1 -140 -92 0 
1 -22 84 0 
1 -38 104 0 
1 -33 -113 0 
1 3 -123 0 
1 -120 130 0 
1 88 -35 0 
1 130 78 0 
1 97 -106 0 
1 -17 -80 0 
1 142 -84 0 
1 -69 22 0 
1 -85 -21 0 
1 134 -110 0 
1 99 -28 0 
1 -75 -102 0 
1 75 36 0 
1 89 55 0 
1 -13 33 0 
1 -4 -24 0 
1 54 45 0 
1 -43 -97 0 
1 -37 65 0 
1 43 94 0 
1 107 -13 0 
1 84 -107 0 
1 139 59 0 
1 62 -59 0 
1 66 -14 0 
1 30 106 0 
1 33 -94 0 
